Maximize

221 dSta_0 + 8 d0_3 + 2 d0_3 + 0 d0_3.0 + 4 d0_3.0 + 6 d0_3 + 0 d0_3.0 + 0 d0_3.0 + 8 d0_3.0 + 2 d1_6 + 0 d1_6 + 0 d1_6.0 + 0 d1_6.0 + 0 d1_6 + 2 d1_6.0 + 0 d1_6.0 + 4 d1_6.0 + 12 d3_4 + 2 d3_4 + 0 d3_4.0 + 4 d3_4.0 + 6 d3_4 + 0 d3_4.0 + 0 d3_4.0 + 8 d3_4.0 + 1 dc4_5 + 0 dc4_5 + 28 dc4_5.0 + 0 dc4_5.0 + 0 dc4_5 + 6 dc4_5.0 + 0 dc4_5.0 + 12 dc4_5.0 + 4 dm4_5 + 0 dm4_5 + 28 dm4_5.0 + 0 dm4_5.0 + 0 dm4_5 + 6 dm4_5.0 + 0 dm4_5.0 + 12 dm4_5.0 + 12 dc4_4 + 0 dc4_4 + 28 dc4_4.0 + 0 dc4_4.0 + 0 dc4_4 + 6 dc4_4.0 + 0 dc4_4.0 + 12 dc4_4.0 + 16 dm4_4 + 0 dm4_4 + 28 dm4_4.0 + 0 dm4_4.0 + 0 dm4_4 + 6 dm4_4.0 + 0 dm4_4.0 + 12 dm4_4.0 + 2 d5_1 + 0 d5_1 + 0 d5_1.0 + 0 d5_1.0 + 2 d5_1 + 0 d5_1.0 + 0 d5_1.0 + 4 d5_1.0 + 4 d6_7 + 0 d6_7 + 0 d6_7.0 + 0 d6_7.0 + 0 d6_7 + 2 d6_7.0 + 0 d6_7.0 + 4 d6_7.0 + 2 d7_8 + 0 d7_8 + 0 d7_8.0 + 0 d7_8.0 + 0 d7_8 + 4 d7_8.0 + 0 d7_8.0 + 8 d7_8.0 + 4 dc8_9 + 0 dc8_9 + 0 dc8_9.0 + 0 dc8_9.0 + 0 dc8_9 + 4 dc8_9.0 + 0 dc8_9.0 + 8 dc8_9.0 + 7 dm8_9 + 0 dm8_9 + 0 dm8_9.0 + 0 dm8_9.0 + 0 dm8_9 + 4 dm8_9.0 + 0 dm8_9.0 + 8 dm8_9.0 + 1 dc8_12 + 0 dc8_12 + 0 dc8_12.0 + 0 dc8_12.0 + 0 dc8_12 + 4 dc8_12.0 + 0 dc8_12.0 + 8 dc8_12.0 + 4 dm8_12 + 0 dm8_12 + 0 dm8_12.0 + 0 dm8_12.0 + 0 dm8_12 + 4 dm8_12.0 + 0 dm8_12.0 + 8 dm8_12.0 + 3 dc9_10 + 0 dc9_10 + 2 dc9_10.0 + 0 dc9_10.0 + 0 dc9_10 + 4 dc9_10.0 + 0 dc9_10.0 + 8 dc9_10.0 + 6 dm9_10 + 0 dm9_10 + 2 dm9_10.0 + 0 dm9_10.0 + 0 dm9_10 + 4 dm9_10.0 + 0 dm9_10.0 + 8 dm9_10.0 + 4 dc9_11 + 0 dc9_11 + 2 dc9_11.0 + 0 dc9_11.0 + 0 dc9_11 + 4 dc9_11.0 + 0 dc9_11.0 + 8 dc9_11.0 + 7 dm9_11 + 0 dm9_11 + 2 dm9_11.0 + 0 dm9_11.0 + 0 dm9_11 + 4 dm9_11.0 + 0 dm9_11.0 + 8 dm9_11.0 + 4 d10_11 + 0 d10_11 + 2 d10_11.0 + 0 d10_11.0 + 0 d10_11 + 2 d10_11.0 + 0 d10_11.0 + 4 d10_11.0 + 1 dc11_12 + 0 dc11_12 + 0 dc11_12.0 + 0 dc11_12.0 + 0 dc11_12 + 2 dc11_12.0 + 0 dc11_12.0 + 4 dc11_12.0 + 4 dm11_12 + 0 dm11_12 + 0 dm11_12.0 + 0 dm11_12.0 + 0 dm11_12 + 2 dm11_12.0 + 0 dm11_12.0 + 4 dm11_12.0 + 2 dc11_8 + 0 dc11_8 + 0 dc11_8.0 + 0 dc11_8.0 + 0 dc11_8 + 2 dc11_8.0 + 0 dc11_8.0 + 4 dc11_8.0 + 5 dm11_8 + 0 dm11_8 + 0 dm11_8.0 + 0 dm11_8.0 + 0 dm11_8 + 2 dm11_8.0 + 0 dm11_8.0 + 4 dm11_8.0 + 3 dc12_13 + 0 dc12_13 + 0 dc12_13.0 + 0 dc12_13.0 + 0 dc12_13 + 2 dc12_13.0 + 0 dc12_13.0 + 4 dc12_13.0 + 6 dm12_13 + 0 dm12_13 + 0 dm12_13.0 + 0 dm12_13.0 + 0 dm12_13 + 2 dm12_13.0 + 0 dm12_13.0 + 4 dm12_13.0 + 1 dc12_14 + 0 dc12_14 + 0 dc12_14.0 + 0 dc12_14.0 + 0 dc12_14 + 2 dc12_14.0 + 0 dc12_14.0 + 4 dc12_14.0 + 4 dm12_14 + 0 dm12_14 + 0 dm12_14.0 + 0 dm12_14.0 + 0 dm12_14 + 2 dm12_14.0 + 0 dm12_14.0 + 4 dm12_14.0 + 1 dc13_14 + 0 dc13_14 + 0 dc13_14.0 + 0 dc13_14.0 + 0 dc13_14 + 2 dc13_14.0 + 0 dc13_14.0 + 4 dc13_14.0 + 4 dm13_14 + 0 dm13_14 + 0 dm13_14.0 + 0 dm13_14.0 + 0 dm13_14 + 2 dm13_14.0 + 0 dm13_14.0 + 4 dm13_14.0 + 4 dc13_7 + 0 dc13_7 + 0 dc13_7.0 + 0 dc13_7.0 + 0 dc13_7 + 2 dc13_7.0 + 0 dc13_7.0 + 4 dc13_7.0 + 7 dm13_7 + 0 dm13_7 + 0 dm13_7.0 + 0 dm13_7.0 + 0 dm13_7 + 2 dm13_7.0 + 0 dm13_7.0 + 4 dm13_7.0 + 4 d14_2 + 0 d14_2 + 0 d14_2.0 + 0 d14_2.0 + 2 d14_2 + 0 d14_2.0 + 0 d14_2.0 + 4 d14_2.0


Subject to

bm - dm4_4 - dm4_5 - dm13_7 - dm11_8 - dm8_9 - dm9_10 - dm9_11 - dm8_12 - dm11_12 - dm12_13 - dm12_14 - dm13_14 = 0

\ === tcfg constraints ===
dSta_0 = 1
b0 - d0_3 = 0
b0 - dSta_0 = 0
b1 - d1_6 = 0
b1 - d5_1 = 0
b2 - d14_2 = 0
b3 - d3_4 = 0
b3 - d0_3 = 0
b4 - d4_5 - d4_4 = 0
b4 - d3_4 - d4_4 = 0
b5 - d5_1 = 0
b5 - d4_5 = 0
b6 - d6_7 = 0
b6 - d1_6 = 0
b7 - d7_8 = 0
b7 - d6_7 - d13_7 = 0
b8 - d8_9 - d8_12 = 0
b8 - d7_8 - d11_8 = 0
b9 - d9_10 - d9_11 = 0
b9 - d8_9 = 0
b10 - d10_11 = 0
b10 - d9_10 = 0
b11 - d11_12 - d11_8 = 0
b11 - d9_11 - d10_11 = 0
b12 - d12_13 - d12_14 = 0
b12 - d8_12 - d11_12 = 0
b13 - d13_14 - d13_7 = 0
b13 - d12_13 = 0
b14 - d14_2 = 0
b14 - d12_14 - d13_14 = 0

c0 - f0_2T - f0_1N <= 0
c0 - f0_2T - f0_1N >= 0
c0 <= 1
c0 >= 0
c1 - f1_4T - f1_3N <= 0
c1 - f1_4T - f1_3N >= 0
c1 - f0_1N <= 0
c1 - f0_1N >= 0
c2 - f2_6T - f2_5N <= 0
c2 - f2_6T - f2_5N >= 0
c2 - f0_2T <= 0
c2 - f0_2T >= 0
c3 - f3_8T - f3_7N <= 0
c3 - f3_8T - f3_7N >= 0
c3 - f5_3N - f1_3N <= 0
c3 - f5_3N - f1_3N >= 0
c4 - f4_9N <= 1
c4 - f4_9N >= 0
c4 - f5_4T - f1_4T <= 0
c4 - f5_4T - f1_4T >= 0
c5 - f5_4T - f5_3N <= 0
c5 - f5_4T - f5_3N >= 0
c5 - f6_5N - f2_5N <= 0
c5 - f6_5N - f2_5N >= 0
c6 - f6_6T - f6_5N <= 0
c6 - f6_6T - f6_5N >= 0
c6 - f6_6T - f2_6T <= 0
c6 - f6_6T - f2_6T >= 0
c7 - f7_11T - f7_10N <= 0
c7 - f7_11T - f7_10N >= 0
c7 - f15_7N - f3_7N <= 0
c7 - f15_7N - f3_7N >= 0
c8 - f8_13T - f8_12N <= 0
c8 - f8_13T - f8_12N >= 0
c8 - f15_8T - f3_8T <= 0
c8 - f15_8T - f3_8T >= 0
c9 - f9_11T <= 1
c9 - f9_11T >= 0
c9 - f16_9N - f4_9N <= 0
c9 - f16_9N - f4_9N >= 0
c10 - f10_14N <= 1
c10 - f10_14N >= 0
c10 - f7_10N <= 0
c10 - f7_10N >= 0
c11 - f11_16T - f11_15N <= 0
c11 - f11_16T - f11_15N >= 0
c11 - f14_11T - f9_11T - f7_11T <= 0
c11 - f14_11T - f9_11T - f7_11T >= 0
c12 - f12_14N <= 1
c12 - f12_14N >= 0
c12 - f8_12N <= 0
c12 - f8_12N >= 0
c13 - f13_16T - f13_15N <= 0
c13 - f13_16T - f13_15N >= 0
c13 - f8_13T <= 0
c13 - f8_13T >= 0
c14 - f14_11T <= 1
c14 - f14_11T >= 0
c14 - f12_14N - f10_14N <= 0
c14 - f12_14N - f10_14N >= 0
c15 - f15_8T - f15_7N <= 0
c15 - f15_8T - f15_7N >= 0
c15 - f13_15N - f11_15N <= 0
c15 - f13_15N - f11_15N >= 0
c16 - f16_9N <= 1
c16 - f16_9N >= 0
c16 - f13_16T - f11_16T <= 0
c16 - f13_16T - f11_16T >= 0


f0_2T - fc0_2T - fm0_2T = 0
f0_1N - fc0_1N - fm0_1N = 0
f1_4T - fc1_4T - fm1_4T = 0
f1_3N - fc1_3N - fm1_3N = 0
f2_6T - fc2_6T - fm2_6T = 0
f2_5N - fc2_5N - fm2_5N = 0
f3_8T - fc3_8T - fm3_8T = 0
f3_7N - fc3_7N - fm3_7N = 0
f4_9N - fc4_9N - fm4_9N = 0
f5_4T - fc5_4T - fm5_4T = 0
f5_3N - fc5_3N - fm5_3N = 0
f6_6T - fc6_6T - fm6_6T = 0
f6_5N - fc6_5N - fm6_5N = 0
f7_11T - fc7_11T - fm7_11T = 0
f7_10N - fc7_10N - fm7_10N = 0
f8_13T - fc8_13T - fm8_13T = 0
f8_12N - fc8_12N - fm8_12N = 0
f9_11T - fc9_11T - fm9_11T = 0
f10_14N - fc10_14N - fm10_14N = 0
f11_16T - fc11_16T - fm11_16T = 0
f11_15N - fc11_15N - fm11_15N = 0
f12_14N - fc12_14N - fm12_14N = 0
f13_16T - fc13_16T - fm13_16T = 0
f13_15N - fc13_15N - fm13_15N = 0
f14_11T - fc14_11T - fm14_11T = 0
f15_8T - fc15_8T - fm15_8T = 0
f15_7N - fc15_7N - fm15_7N = 0
f16_9N - fc16_9N - fm16_9N = 0

c0 <= 1
c0 >= 0
c1 <= 1
c1 >= 0
c2 <= 1
c2 >= 0
c3 <= 1
c3 >= 0
c4 <= 1
c4 >= 0
c5 <= 1
c5 >= 0
c6 - p6_6T <= 1
c6 - p6_6T >= 0
c7 - p7_7N - p7_7T <= 1
c7 - p7_7N - p7_7T >= 0
c8 - p8_8N - p8_8T <= 1
c8 - p8_8N - p8_8T >= 0
c9 - p9_9T <= 1
c9 - p9_9T >= 0
c10 - p10_10N <= 1
c10 - p10_10N >= 0
c11 - p11_11N - p11_11T <= 1
c11 - p11_11N - p11_11T >= 0
c12 - p12_12N <= 1
c12 - p12_12N >= 0
c13 - p13_13N - p13_13T <= 1
c13 - p13_13N - p13_13T >= 0
c14 - p14_14T <= 1
c14 - p14_14T >= 0
c15 - p15_15N - p15_15T <= 1
c15 - p15_15N - p15_15T >= 0
c16 - p16_16N <= 1
c16 - p16_16N >= 0

f0_2T <= 1
f0_2T >= 0
f0_1N <= 1
f0_1N >= 0
f1_4T <= 1
f1_4T >= 0
f1_3N <= 1
f1_3N >= 0
f2_6T <= 1
f2_6T >= 0
f2_5N <= 1
f2_5N >= 0
f3_8T <= 1
f3_8T >= 0
f3_7N <= 1
f3_7N >= 0
f4_9N <= 1
f4_9N >= 0
f5_4T <= 1
f5_4T >= 0
f5_3N <= 1
f5_3N >= 0
f6_6T - p6_6T <= 0
f6_6T - p6_6T >= 0
f6_5N <= 1
f6_5N >= 0
f7_11T - p7_7T <= 1
f7_11T - p7_7T >= 0
f7_10N - p7_7N <= 1
f7_10N - p7_7N >= 0
f8_13T - p8_8T <= 1
f8_13T - p8_8T >= 0
f8_12N - p8_8N <= 1
f8_12N - p8_8N >= 0
f9_11T - p9_9T <= 1
f9_11T - p9_9T >= 0
f10_14N - p10_10N <= 1
f10_14N - p10_10N >= 0
f11_16T - p11_11T <= 1
f11_16T - p11_11T >= 0
f11_15N - p11_11N <= 1
f11_15N - p11_11N >= 0
f12_14N - p12_12N <= 1
f12_14N - p12_12N >= 0
f13_16T - p13_13T <= 1
f13_16T - p13_13T >= 0
f13_15N - p13_13N <= 1
f13_15N - p13_13N >= 0
f14_11T - p14_14T <= 1
f14_11T - p14_14T >= 0
f15_8T - p15_15T <= 1
f15_8T - p15_15T >= 0
f15_7N - p15_15N <= 1
f15_7N - p15_15N >= 0
f16_9N - p16_16N <= 1
f16_9N - p16_16N >= 0

fm0_2T <= 1
fm0_1N <= 1
fm1_4T <= 1
fm1_3N <= 1
fm2_6T <= 1
fm2_5N <= 1
fm3_8T <= 1
fm3_7N <= 1
fm4_9N <= 1
fm5_4T <= 1
fm5_3N <= 1
fm6_6T <= 1
fm6_5N - p6_6T <= 1
fm7_11T - p7_7N <= 1
fm7_10N - p7_7T <= 1
fm8_13T - p8_8N <= 1
fm8_12N - p8_8T <= 1
fm9_11T <= 1
fm10_14N <= 1
fm11_16T - p11_11N <= 1
fm11_15N - p11_11T <= 1
fm12_14N <= 1
fm13_16T - p13_13N <= 1
fm13_15N - p13_13T <= 1
fm14_11T <= 1
fm15_8T - p15_15N <= 1
fm15_7N - p15_15T <= 1
fm16_9N <= 1

b4 - c0 - c6 - c2 = 0
b8 - c13 - c5 - c11 - c1 = 0
b9 - c15 - c3 = 0
b11 - c8 - c7 = 0
b12 - c16 - c12 - c4 - c10 = 0
b13 - c9 - c14 = 0
d4_5 - dc4_5 - dm4_5 = 0
d4_4 - dc4_4 - dm4_4 = 0
d8_9 - dc8_9 - dm8_9 = 0
d8_12 - dc8_12 - dm8_12 = 0
d9_10 - dc9_10 - dm9_10 = 0
d9_11 - dc9_11 - dm9_11 = 0
d11_12 - dc11_12 - dm11_12 = 0
d11_8 - dc11_8 - dm11_8 = 0
d12_13 - dc12_13 - dm12_13 = 0
d12_14 - dc12_14 - dm12_14 = 0
d13_14 - dc13_14 - dm13_14 = 0
d13_7 - dc13_7 - dm13_7 = 0
d4_5 - f0_1N - f6_5N - f2_5N = 0
dm4_5 - fm0_1N - fm6_5N - fm2_5N = 0
d4_4 - f0_2T - f6_6T - f2_6T = 0
dm4_4 - fm0_2T - fm6_6T - fm2_6T = 0
d8_9 - f13_15N - f5_3N - f11_15N - f1_3N = 0
dm8_9 - fm13_15N - fm5_3N - fm11_15N - fm1_3N = 0
d8_12 - f13_16T - f5_4T - f11_16T - f1_4T = 0
dm8_12 - fm13_16T - fm5_4T - fm11_16T - fm1_4T = 0
d9_10 - f15_7N - f3_7N = 0
dm9_10 - fm15_7N - fm3_7N = 0
d9_11 - f15_8T - f3_8T = 0
dm9_11 - fm15_8T - fm3_8T = 0
d11_12 - f8_12N - f7_10N = 0
dm11_12 - fm8_12N - fm7_10N = 0
d11_8 - f8_13T - f7_11T = 0
dm11_8 - fm8_13T - fm7_11T = 0
d12_13 - f16_9N - f12_14N - f4_9N - f10_14N = 0
dm12_13 - fm16_9N - fm12_14N - fm4_9N - fm10_14N = 0
d12_14 <= 1
dm12_14 <= 1
d13_14 <= 1
dm13_14 <= 1
d13_7 - f9_11T - f14_11T = 0
dm13_7 - fm9_11T - fm14_11T = 0


\ === tcfg_estunit_cons_ps ===
d0_3 - d0_3.0 >= 0
d0_3.0 <= 1
d1_6 - d1_6.0 >= 0
d1_6.0 <= 1
d3_4 - d3_4.0 >= 0
d3_4.0 <= 1
d4_5 - d4_5.0 >= 0
d4_5.0 <= 1
d4_4 - d4_4.0 >= 0
d4_4.0 <= 1
d5_1 - d5_1.0 >= 0
d5_1.0 <= 1
d6_7 - d6_7.0 >= 0
d6_7.0 <= 1
d7_8 - d7_8.0 >= 0
d7_8.0 <= 1
d8_9 - d8_9.0 >= 0
d8_9.0 <= 1
d8_12 - d8_12.0 >= 0
d8_12.0 <= 1
d9_10 - d9_10.0 >= 0
d9_10.0 <= 1
d9_11 - d9_11.0 >= 0
d9_11.0 <= 1
d10_11 - d10_11.0 >= 0
d10_11.0 <= 1
d11_12 - d11_12.0 >= 0
d11_12.0 <= 1
d11_8 - d11_8.0 >= 0
d11_8.0 <= 1
d12_13 - d12_13.0 >= 0
d12_13.0 <= 1
d12_14 - d12_14.0 >= 0
d12_14.0 <= 1
d13_14 - d13_14.0 >= 0
d13_14.0 <= 1
d13_7 - d13_7.0 >= 0
d13_7.0 <= 1
d14_2 - d14_2.0 >= 0
d14_2.0 <= 1

\ === infeasible path constraints ===

b0 = 1
b1 = 1
b2 = 1
b3 = 1
b4 = 100
b5 = 1
b6 = 1
b7 = 1
b8 = 99
b9 = 99
b11 = 99
b12 = 1
b13 = 0
b14 = 1

Generals

bm
Sta
b0
d0_3
b1
d1_6
b2
b3
d3_4
b4
d4_5
d4_4
b5
d5_1
b6
d6_7
b7
d7_8
b8
d8_9
d8_12
b9
d9_10
d9_11
b10
d10_11
b11
d11_12
d11_8
b12
d12_13
d12_14
b13
d13_14
d13_7
b14
d14_2
c0
f0_2T
f0_1N
f0_2T
f0_1N
c1
f1_4T
f1_3N
f1_4T
f1_3N
c2
f2_6T
f2_5N
f2_6T
f2_5N
c3
f3_8T
f3_7N
f3_8T
f3_7N
c4
f4_9N
f4_9N
c5
f5_4T
f5_3N
f5_4T
f5_3N
c6
f6_6T
f6_5N
f6_6T
f6_5N
c7
f7_11T
f7_10N
f7_11T
f7_10N
c8
f8_13T
f8_12N
f8_13T
f8_12N
c9
f9_11T
f9_11T
c10
f10_14N
f10_14N
c11
f11_16T
f11_15N
f11_16T
f11_15N
c12
f12_14N
f12_14N
c13
f13_16T
f13_15N
f13_16T
f13_15N
c14
f14_11T
f14_11T
c15
f15_8T
f15_7N
f15_8T
f15_7N
c16
f16_9N
f16_9N
fc0_2T
fm0_2T
fc0_1N
fm0_1N
fc1_4T
fm1_4T
fc1_3N
fm1_3N
fc2_6T
fm2_6T
fc2_5N
fm2_5N
fc3_8T
fm3_8T
fc3_7N
fm3_7N
fc4_9N
fm4_9N
fc5_4T
fm5_4T
fc5_3N
fm5_3N
fc6_6T
fm6_6T
fc6_5N
fm6_5N
fc7_11T
fm7_11T
fc7_10N
fm7_10N
fc8_13T
fm8_13T
fc8_12N
fm8_12N
fc9_11T
fm9_11T
fc10_14N
fm10_14N
fc11_16T
fm11_16T
fc11_15N
fm11_15N
fc12_14N
fm12_14N
fc13_16T
fm13_16T
fc13_15N
fm13_15N
fc14_11T
fm14_11T
fc15_8T
fm15_8T
fc15_7N
fm15_7N
fc16_9N
fm16_9N
dc4_5
dm4_5
dc4_4
dm4_4
dc8_9
dm8_9
dc8_12
dm8_12
dc9_10
dm9_10
dc9_11
dm9_11
dc11_12
dm11_12
dc11_8
dm11_8
dc12_13
dm12_13
dc12_14
dm12_14
dc13_14
dm13_14
dc13_7
dm13_7

End
\ total_cons: 341 	total_vars: 190
